% File represents an instance of a Composite Structure problem to be solved by a CP framework
% Created on 2025-03-26 10:41:29.626
T = 50;
n = 25;
m = 40;
edges = [(2, 1),
(6, 7),
(11, 12),
(16, 17),
(21, 22),
(2, 3),
(7, 8),
(13, 12),
(17, 18),
(22, 23),
(3, 4),
(8, 9),
(13, 14),
(18, 19),
(23, 24),
(5, 4),
(10, 9),
(15, 14),
(20, 19),
(25, 24),
(6, 1),
(11, 6),
(16, 11),
(21, 16),
(2, 7),
(7, 12),
(17, 12),
(22, 17),
(3, 8),
(13, 8),
(13, 18),
(23, 18),
(4, 9),
(14, 9),
(19, 14),
(24, 19),
(5, 10),
(15, 10),
(20, 15),
(25, 20)];
counts = [|10, 4, 10, 8,
|10, 6, 10, 10,
|10, 2, 10, 10,
|8, 2, 8, 10,
|8, 4, 8, 14,
|10, 8, 10, 8,
|10, 6, 10, 8,
|10, 2, 10, 8,
|8, 2, 8, 6,
|8, 4, 8, 10,
|10, 8, 10, 10,
|10, 4, 10, 8,
|10, 6, 10, 10,
|10, 4, 10, 6,
|10, 6, 10, 10,
|12, 8, 12, 12,
|10, 8, 10, 10,
|10, 6, 10, 8,
|10, 6, 10, 6,
|10, 8, 10, 10,
|14, 10, 14, 12,
|12, 10, 12, 10,
|10, 10, 10, 8,
|10, 8, 10, 8,
|10, 8, 10, 12|];
